50
    1    91    81
    2    52    42
    3    52    42
    4    52    42
    5    66    56
    6    78    68
    7    35    25
    8    78    68
    9    24    14
   10    87    77
   11    73    63
   12    67    57
   13    85    75
   14    27    17
   15    51    41
   16    29    19
   17    29    19
   18   104    94
   19    22    12
   20    44    34
   21    35    25
   22    97    87
   23    47    37
   24    37    27
   25    20    10
   26   109    99
   27    96    86
   28    40    30
   29    16     6
   30    69    59
   31    56    46
   32   110   100
   33    17     7
   34    40    30
   35    28    18
   36    48    38
   37    89    79
   38    96    86
   39    18     8
   40    79    69
   41    61    51
   42    63    53
   43    63    53
   44    69    59
   45    48    38
   46    50    40
   47   110   100
   48   106    96
   49    92    82
   50    67    57
420
